n = 10;
m = 10;

clue = [|  0, 0,60, 0,68,67,64, 0, 1, 0
        |  0, 0, 0,69, 0, 0, 0, 0, 0, 5
        |  0, 0, 0,42,55, 0, 0, 0, 4, 0
        | 76, 0, 0, 0, 0, 0, 0, 0, 0, 9
        | 77, 0, 0,38, 0, 0,49,12,10, 0
        |  0,79, 0, 0, 0,48, 0, 0,100,0
        | 80, 0, 0, 0,35, 0, 0, 0,15, 0
        |  0,84,31, 0, 0,24, 0, 0,96, 0
        | 86,85, 0,27,92, 0, 0, 0, 0,18
        |  0, 0,90, 0, 0, 0, 0, 0, 0, 0
        |];